Instance: E121-07c.dat
Class:  3
  120 --- number of customers (no depot)
   25 --- number of vehicles
  242 --- number of items
Capacity - height - width of vehicles
   200     40     20
Node - x - y - demand
    0    10.0    45.0     0.0
    1    25.0     1.0    25.0
    2    25.0     3.0     7.0
    3    31.0     5.0    13.0
    4    32.0     5.0     6.0
    5    31.0     7.0    14.0
    6    32.0     9.0     5.0
    7    34.0     9.0    11.0
    8    46.0     9.0    19.0
    9    35.0     7.0     5.0
   10    34.0     6.0    15.0
   11    35.0     5.0    15.0
   12    47.0     6.0    17.0
   13    40.0     5.0    13.0
   14    39.0     3.0    12.0
   15    36.0     3.0    18.0
   16    73.0     6.0    13.0
   17    73.0     8.0    18.0
   18    24.0    36.0    12.0
   19    76.0     6.0    17.0
   20    76.0    10.0     4.0
   21    76.0    13.0     7.0
   22    78.0     3.0    12.0
   23    78.0     9.0    13.0
   24    79.0     3.0     8.0
   25    79.0     5.0    16.0
   26    79.0    11.0    15.0
   27    82.0     3.0     6.0
   28    82.0     7.0     5.0
   29    90.0    15.0     9.0
   30    84.0     3.0    11.0
   31    84.0     5.0    10.0
   32    84.0     9.0     3.0
   33    85.0     1.0     7.0
   34    87.0     5.0     2.0
   35    85.0     8.0     4.0
   36    87.0     7.0     4.0
   37    86.0    41.0    18.0
   38    86.0    44.0    14.0
   39    86.0    46.0    12.0
   40    85.0    55.0    17.0
   41    89.0    43.0    20.0
   42    89.0    46.0    14.0
   43    89.0    52.0    16.0
   44    92.0    42.0    10.0
   45    92.0    52.0     9.0
   46    94.0    42.0    11.0
   47    94.0    44.0     7.0
   48    94.0    48.0    13.0
   49    96.0    42.0     5.0
   50    99.0    46.0     4.0
   51    99.0    50.0    21.0
   52    83.0    80.0    13.0
   53    83.0    83.0    11.0
   54    85.0    81.0    12.0
   55    85.0    85.0    14.0
   56    85.0    89.0    10.0
   57    87.0    80.0     8.0
   58    87.0    86.0    16.0
   59    90.0    77.0    19.0
   60    90.0    88.0     5.0
   61    93.0    82.0    17.0
   62    93.0    84.0     7.0
   63    93.0    89.0    16.0
   64    94.0    86.0    14.0
   65    95.0    80.0    17.0
   66    99.0    89.0    13.0
   67    37.0    83.0    17.0
   68    50.0    80.0    13.0
   69    35.0    85.0    14.0
   70    35.0    87.0    16.0
   71    44.0    86.0     7.0
   72    46.0    89.0    13.0
   73    46.0    83.0     9.0
   74    46.0    87.0    11.0
   75    46.0    89.0    35.0
   76    48.0    83.0     5.0
   77    50.0    85.0    28.0
   78    50.0    88.0     7.0
   79    54.0    86.0     3.0
   80    54.0    90.0    10.0
   81    10.0    35.0     7.0
   82    10.0    40.0    12.0
   83    18.0    30.0    11.0
   84    17.0    35.0    10.0
   85    16.0    38.0     8.0
   86    14.0    40.0    11.0
   87    15.0    42.0    21.0
   88    11.0    42.0     4.0
   89    18.0    40.0    15.0
   90    21.0    39.0    16.0
   91    20.0    40.0     4.0
   92    18.0    41.0    16.0
   93    20.0    44.0     7.0
   94    22.0    44.0    10.0
   95    16.0    45.0     9.0
   96    20.0    45.0    11.0
   97    25.0    45.0    17.0
   98    30.0    55.0    12.0
   99    20.0    50.0    11.0
  100    22.0    51.0     7.0
  101    18.0    49.0     9.0
  102    16.0    48.0    11.0
  103    20.0    55.0    12.0
  104    18.0    53.0     7.0
  105    14.0    50.0     8.0
  106    15.0    51.0     6.0
  107    16.0    54.0     5.0
  108    28.0    33.0    12.0
  109    33.0    38.0    13.0
  110    30.0    50.0     7.0
  111    13.0    40.0     7.0
  112    15.0    36.0     8.0
  113    18.0    31.0    11.0
  114    25.0    37.0    13.0
  115    30.0    46.0    11.0
  116    25.0    52.0    10.0
  117    16.0    33.0     7.0
  118    25.0    35.0     4.0
  119     5.0    40.0    20.0
  120     5.0    50.0    13.0
Node - number of items - h - w for each item
    0   0
    1   2    6   13   13    2
    2   2    9    5   27    3
    3   2    4   15    9    7
    4   3    6   14   15    6    8    5
    5   2    8   15   10    4
    6   3    8   11   15    6   12    2
    7   2    7   11    8    5
    8   3    7   10   10    8   10    7
    9   2   32    3   17    3
   10   1   20    2
   11   3    4   16   11    7   25    4
   12   1    7    7
   13   3   30    4   15    4   30    3
   14   2    5   14    6    7
   15   2   20    3   15    2
   16   2   14    7   31    4
   17   2    5   13   20    3
   18   3   10    5   16    4   12    2
   19   2    5   12   17    3
   20   3   12    4   29    3   16    3
   21   2    5   13   11    7
   22   1    7    8
   23   2    5   13   12    7
   24   1    5   14
   25   2    8   14   12    5
   26   2    6   11   13    3
   27   1   20    2
   28   3   11    6   16    5   29    2
   29   2    5   10   31    4
   30   1   28    2
   31   2    6    9   24    2
   32   2   15    6   15    2
   33   1   14    4
   34   2   11    7    8    6
   35   2    8    8   12    5
   36   2    6   14   17    2
   37   3    5   14   27    4    9    4
   38   2    9    8   14    6
   39   2    8    7   20    3
   40   1    9    7
   41   2    4   13   17    3
   42   3    5   16   10    8   12    4
   43   2    4   10   14    5
   44   2    5   13   19    3
   45   3    5   14    7    7   16    6
   46   1    7    7
   47   3    6   10   16    7   31    3
   48   1    8    7
   49   1    6   16
   50   1   12    5
   51   1   20    3
   52   2   11    4   24    3
   53   2    5   15   28    4
   54   2   16    8   17    2
   55   3   11    8    5    7   12    2
   56   3    6    8   14    7   24    4
   57   2   11    7   29    3
   58   3    7   12   14    6   13    4
   59   2    7   14   14    6
   60   3    5   14    8    6   12    3
   61   1   10    4
   62   3   14    7   15    6   11    6
   63   2    4   13    5    9
   64   2    6   14   14    6
   65   3    7   11   11    7    9    7
   66   3    7   10    5    7    4    6
   67   2   14    8   24    3
   68   1   28    3
   69   3   11    7   16    6   22    2
   70   1    8   14
   71   2    6    6   32    2
   72   1    9    7
   73   2    8    7   22    3
   74   1   13    5
   75   2    7   16    5   13
   76   3    6   15   28    4   21    2
   77   2   15    3   13    2
   78   1   14    6
   79   1   14    4
   80   3   14    7    4    6   21    3
   81   1    5   11
   82   1   18    3
   83   2   14    3   15    2
   84   2   14    5   17    3
   85   1   16    7
   86   3    6   15    7   14    5   11
   87   1   13    6
   88   3    6   11   10    5   21    3
   89   3    6   12   13    6   28    4
   90   2    5   13    6   12
   91   1    8    6
   92   2   11    7    9    6
   93   3   15    7    6    7    6    7
   94   1    5    8
   95   2    7   14    7   13
   96   1   15    7
   97   2   17    4   17    3
   98   1   19    3
   99   1    8   11
  100   3    7    9   10    7   27    2
  101   3    8   15   16    6   16    5
  102   3    5   10   14    7   15    5
  103   1   13    3
  104   2    4    7   12    6
  105   1   28    3
  106   1    5    6
  107   1   25    3
  108   3    7   12   11    8   26    2
  109   2   24    3   16    3
  110   1   18    3
  111   3    6   11   15    8   13    4
  112   3    5   13    8   11   23    3
  113   3    7   15    8   10   12    2
  114   3   15    5   15    3   13    2
  115   3    6    8   15    5   30    3
  116   2    7    9   11    6
  117   3   15    7   27    4   30    3
  118   1    5   16
  119   3    5   11    8    8   15    6
  120   2   15    7   21    3
